(set-logic QF_S)
(declare-fun var_0xINPUT_120690 () String)
(assert (and (= (len var_0xINPUT_120690) 0) (= (len var_0xINPUT_120690) 0) (not (= var_0xINPUT_120690 "Example:")) (not (= var_0xINPUT_120690 "6JX7G3VKFq"))))
(check-sat var_0xINPUT_120690)